c sudoku, order: 9, holes: 56
c 
c .........
c .5724...9
c 8....947.
c ..9..3...
c 5..9..12.
c ..3.1.9..
c .6....25.
c ...56....
c .7......6
c 
p cnf 224 1762
-1 -2 0
-1 -3 0
-1 -4 0
-1 -5 0
-1 -6 0
-2 -3 0
-2 -4 0
-2 -5 0
-2 -6 0
-3 -4 0
-3 -5 0
-3 -6 0
-4 -5 0
-4 -6 0
-5 -6 0
-7 -8 0
-7 -9 0
-7 -10 0
-7 -11 0
-8 -9 0
-8 -10 0
-8 -11 0
-9 -10 0
-9 -11 0
-10 -11 0
-12 -13 0
-12 -14 0
-12 -15 0
-13 -14 0
-13 -15 0
-14 -15 0
-16 -17 0
-16 -18 0
-16 -19 0
-16 -20 0
-17 -18 0
-17 -19 0
-17 -20 0
-18 -19 0
-18 -20 0
-19 -20 0
-21 -22 0
-21 -23 0
-21 -24 0
-22 -23 0
-22 -24 0
-23 -24 0
-25 -26 0
-25 -27 0
-25 -28 0
-25 -29 0
-26 -27 0
-26 -28 0
-26 -29 0
-27 -28 0
-27 -29 0
-28 -29 0
-30 -31 0
-30 -32 0
-30 -33 0
-31 -32 0
-31 -33 0
-32 -33 0
-34 -35 0
-34 -36 0
-34 -37 0
-35 -36 0
-35 -37 0
-36 -37 0
-38 -39 0
-38 -40 0
-38 -41 0
-38 -42 0
-39 -40 0
-39 -41 0
-39 -42 0
-40 -41 0
-40 -42 0
-41 -42 0
-43 -44 0
-43 -45 0
-44 -45 0
-46 -47 0
-46 -48 0
-47 -48 0
-49 -50 0
-49 -51 0
-50 -51 0
-52 -53 0
-52 -54 0
-52 -55 0
-53 -54 0
-53 -55 0
-54 -55 0
-56 -57 0
-56 -58 0
-57 -58 0
-59 -60 0
-59 -61 0
-60 -61 0
-62 -63 0
-62 -64 0
-63 -64 0
-65 -66 0
-67 -68 0
-67 -69 0
-67 -70 0
-68 -69 0
-68 -70 0
-69 -70 0
-71 -72 0
-71 -73 0
-71 -74 0
-71 -75 0
-72 -73 0
-72 -74 0
-72 -75 0
-73 -74 0
-73 -75 0
-74 -75 0
-76 -77 0
-76 -78 0
-76 -79 0
-77 -78 0
-77 -79 0
-78 -79 0
-80 -81 0
-80 -82 0
-80 -83 0
-81 -82 0
-81 -83 0
-82 -83 0
-84 -85 0
-84 -86 0
-84 -87 0
-85 -86 0
-85 -87 0
-86 -87 0
-88 -89 0
-88 -90 0
-88 -91 0
-89 -90 0
-89 -91 0
-90 -91 0
-92 -93 0
-92 -94 0
-93 -94 0
-95 -96 0
-95 -97 0
-95 -98 0
-96 -97 0
-96 -98 0
-97 -98 0
-99 -100 0
-101 -102 0
-101 -103 0
-102 -103 0
-104 -105 0
-106 -107 0
-106 -108 0
-106 -109 0
-107 -108 0
-107 -109 0
-108 -109 0
-110 -111 0
-110 -112 0
-110 -113 0
-111 -112 0
-111 -113 0
-112 -113 0
-114 -115 0
-114 -116 0
-114 -117 0
-115 -116 0
-115 -117 0
-116 -117 0
-118 -119 0
-118 -120 0
-119 -120 0
-121 -122 0
-121 -123 0
-121 -124 0
-122 -123 0
-122 -124 0
-123 -124 0
-125 -126 0
-125 -127 0
-125 -128 0
-125 -129 0
-125 -130 0
-126 -127 0
-126 -128 0
-126 -129 0
-126 -130 0
-127 -128 0
-127 -129 0
-127 -130 0
-128 -129 0
-128 -130 0
-129 -130 0
-131 -132 0
-131 -133 0
-132 -133 0
-134 -135 0
-134 -136 0
-134 -137 0
-135 -136 0
-135 -137 0
-136 -137 0
-138 -139 0
-138 -140 0
-138 -141 0
-139 -140 0
-139 -141 0
-140 -141 0
-142 -143 0
-142 -144 0
-143 -144 0
-145 -146 0
-145 -147 0
-145 -148 0
-145 -149 0
-146 -147 0
-146 -148 0
-146 -149 0
-147 -148 0
-147 -149 0
-148 -149 0
-150 -151 0
-150 -152 0
-150 -153 0
-151 -152 0
-151 -153 0
-152 -153 0
-154 -155 0
-154 -156 0
-154 -157 0
-155 -156 0
-155 -157 0
-156 -157 0
-158 -159 0
-158 -160 0
-158 -161 0
-158 -162 0
-159 -160 0
-159 -161 0
-159 -162 0
-160 -161 0
-160 -162 0
-161 -162 0
-163 -164 0
-163 -165 0
-163 -166 0
-163 -167 0
-164 -165 0
-164 -166 0
-164 -167 0
-165 -166 0
-165 -167 0
-166 -167 0
-168 -169 0
-168 -170 0
-168 -171 0
-168 -172 0
-168 -173 0
-169 -170 0
-169 -171 0
-169 -172 0
-169 -173 0
-170 -171 0
-170 -172 0
-170 -173 0
-171 -172 0
-171 -173 0
-172 -173 0
-174 -175 0
-174 -176 0
-174 -177 0
-175 -176 0
-175 -177 0
-176 -177 0
-178 -179 0
-178 -180 0
-178 -181 0
-178 -182 0
-179 -180 0
-179 -181 0
-179 -182 0
-180 -181 0
-180 -182 0
-181 -182 0
-183 -184 0
-183 -185 0
-184 -185 0
-186 -187 0
-186 -188 0
-186 -189 0
-186 -190 0
-187 -188 0
-187 -189 0
-187 -190 0
-188 -189 0
-188 -190 0
-189 -190 0
-191 -192 0
-191 -193 0
-191 -194 0
-191 -195 0
-192 -193 0
-192 -194 0
-192 -195 0
-193 -194 0
-193 -195 0
-194 -195 0
-196 -197 0
-196 -198 0
-196 -199 0
-196 -200 0
-197 -198 0
-197 -199 0
-197 -200 0
-198 -199 0
-198 -200 0
-199 -200 0
-201 -202 0
-201 -203 0
-201 -204 0
-201 -205 0
-202 -203 0
-202 -204 0
-202 -205 0
-203 -204 0
-203 -205 0
-204 -205 0
-206 -207 0
-206 -208 0
-206 -209 0
-207 -208 0
-207 -209 0
-208 -209 0
-210 -211 0
-210 -212 0
-210 -213 0
-211 -212 0
-211 -213 0
-212 -213 0
-214 -215 0
-214 -216 0
-214 -217 0
-215 -216 0
-215 -217 0
-216 -217 0
-218 -219 0
-220 -221 0
-220 -222 0
-220 -223 0
-220 -224 0
-221 -222 0
-221 -223 0
-221 -224 0
-222 -223 0
-222 -224 0
-223 -224 0
-1 -7 0
-1 -12 0
-1 -16 0
-1 -25 0
-1 -34 0
-1 -38 0
-7 -12 0
-7 -16 0
-7 -25 0
-7 -34 0
-7 -38 0
-12 -16 0
-12 -25 0
-12 -34 0
-12 -38 0
-16 -25 0
-16 -34 0
-16 -38 0
-25 -34 0
-25 -38 0
-34 -38 0
-2 -8 0
-2 -13 0
-2 -39 0
-8 -13 0
-8 -39 0
-13 -39 0
-3 -9 0
-3 -17 0
-3 -21 0
-3 -30 0
-3 -35 0
-3 -40 0
-9 -17 0
-9 -21 0
-9 -30 0
-9 -35 0
-9 -40 0
-17 -21 0
-17 -30 0
-17 -35 0
-17 -40 0
-21 -30 0
-21 -35 0
-21 -40 0
-30 -35 0
-30 -40 0
-35 -40 0
-4 -10 0
-4 -14 0
-10 -14 0
-22 -26 0
-22 -31 0
-22 -41 0
-26 -31 0
-26 -41 0
-31 -41 0
-5 -15 0
-5 -18 0
-5 -27 0
-5 -32 0
-5 -36 0
-15 -18 0
-15 -27 0
-15 -32 0
-15 -36 0
-18 -27 0
-18 -32 0
-18 -36 0
-27 -32 0
-27 -36 0
-32 -36 0
-19 -23 0
-19 -28 0
-23 -28 0
-20 -24 0
-20 -29 0
-20 -33 0
-20 -37 0
-20 -42 0
-24 -29 0
-24 -33 0
-24 -37 0
-24 -42 0
-29 -33 0
-29 -37 0
-29 -42 0
-33 -37 0
-33 -42 0
-37 -42 0
-6 -11 0
-43 -46 0
-43 -52 0
-46 -52 0
-44 -49 0
-44 -53 0
-49 -53 0
-45 -47 0
-45 -50 0
-45 -54 0
-47 -50 0
-47 -54 0
-50 -54 0
-48 -51 0
-48 -55 0
-51 -55 0
-56 -59 0
-56 -62 0
-56 -67 0
-59 -62 0
-59 -67 0
-62 -67 0
-57 -60 0
-57 -68 0
-60 -68 0
-58 -63 0
-58 -65 0
-58 -69 0
-63 -65 0
-63 -69 0
-65 -69 0
-66 -70 0
-61 -64 0
-71 -76 0
-72 -77 0
-72 -84 0
-77 -84 0
-73 -78 0
-73 -80 0
-73 -92 0
-73 -95 0
-78 -80 0
-78 -92 0
-78 -95 0
-80 -92 0
-80 -95 0
-92 -95 0
-85 -88 0
-85 -96 0
-88 -96 0
-74 -81 0
-74 -89 0
-74 -93 0
-81 -89 0
-81 -93 0
-89 -93 0
-75 -82 0
-75 -86 0
-75 -90 0
-75 -97 0
-82 -86 0
-82 -90 0
-82 -97 0
-86 -90 0
-86 -97 0
-90 -97 0
-79 -83 0
-79 -87 0
-79 -91 0
-79 -94 0
-79 -98 0
-83 -87 0
-83 -91 0
-83 -94 0
-83 -98 0
-87 -91 0
-87 -94 0
-87 -98 0
-91 -94 0
-91 -98 0
-94 -98 0
-99 -101 0
-99 -106 0
-99 -111 0
-101 -106 0
-101 -111 0
-106 -111 0
-102 -107 0
-104 -108 0
-104 -112 0
-108 -112 0
-100 -103 0
-100 -105 0
-100 -109 0
-100 -113 0
-103 -105 0
-103 -109 0
-103 -113 0
-105 -109 0
-105 -113 0
-109 -113 0
-114 -118 0
-114 -125 0
-118 -125 0
-115 -119 0
-115 -121 0
-115 -126 0
-115 -131 0
-115 -134 0
-119 -121 0
-119 -126 0
-119 -131 0
-119 -134 0
-121 -126 0
-121 -131 0
-121 -134 0
-126 -131 0
-126 -134 0
-131 -134 0
-127 -135 0
-116 -122 0
-116 -128 0
-116 -132 0
-122 -128 0
-122 -132 0
-128 -132 0
-117 -123 0
-117 -129 0
-117 -136 0
-123 -129 0
-123 -136 0
-129 -136 0
-120 -124 0
-120 -130 0
-120 -133 0
-120 -137 0
-124 -130 0
-124 -133 0
-124 -137 0
-130 -133 0
-130 -137 0
-133 -137 0
-138 -142 0
-138 -145 0
-138 -154 0
-138 -158 0
-142 -145 0
-142 -154 0
-142 -158 0
-145 -154 0
-145 -158 0
-154 -158 0
-139 -146 0
-139 -150 0
-139 -159 0
-146 -150 0
-146 -159 0
-150 -159 0
-140 -143 0
-140 -147 0
-140 -155 0
-140 -160 0
-143 -147 0
-143 -155 0
-143 -160 0
-147 -155 0
-147 -160 0
-155 -160 0
-148 -151 0
-148 -156 0
-148 -161 0
-151 -156 0
-151 -161 0
-156 -161 0
-144 -149 0
-144 -152 0
-144 -157 0
-144 -162 0
-149 -152 0
-149 -157 0
-149 -162 0
-152 -157 0
-152 -162 0
-157 -162 0
-141 -153 0
-163 -168 0
-163 -174 0
-163 -178 0
-163 -186 0
-163 -191 0
-168 -174 0
-168 -178 0
-168 -186 0
-168 -191 0
-174 -178 0
-174 -186 0
-174 -191 0
-178 -186 0
-178 -191 0
-186 -191 0
-164 -169 0
-164 -175 0
-164 -179 0
-169 -175 0
-169 -179 0
-175 -179 0
-165 -170 0
-165 -183 0
-165 -187 0
-165 -192 0
-170 -183 0
-170 -187 0
-170 -192 0
-183 -187 0
-183 -192 0
-187 -192 0
-166 -171 0
-166 -176 0
-166 -180 0
-166 -188 0
-166 -193 0
-171 -176 0
-171 -180 0
-171 -188 0
-171 -193 0
-176 -180 0
-176 -188 0
-176 -193 0
-180 -188 0
-180 -193 0
-188 -193 0
-181 -184 0
-181 -194 0
-184 -194 0
-172 -177 0
-172 -182 0
-172 -185 0
-172 -189 0
-172 -195 0
-177 -182 0
-177 -185 0
-177 -189 0
-177 -195 0
-182 -185 0
-182 -189 0
-182 -195 0
-185 -189 0
-185 -195 0
-189 -195 0
-167 -173 0
-167 -190 0
-173 -190 0
-196 -201 0
-196 -206 0
-196 -214 0
-196 -220 0
-201 -206 0
-201 -214 0
-201 -220 0
-206 -214 0
-206 -220 0
-214 -220 0
-197 -202 0
-197 -210 0
-197 -215 0
-202 -210 0
-202 -215 0
-210 -215 0
-198 -207 0
-198 -211 0
-198 -218 0
-198 -221 0
-207 -211 0
-207 -218 0
-207 -221 0
-211 -218 0
-211 -221 0
-218 -221 0
-199 -203 0
-199 -208 0
-199 -216 0
-199 -222 0
-203 -208 0
-203 -216 0
-203 -222 0
-208 -216 0
-208 -222 0
-216 -222 0
-205 -209 0
-205 -212 0
-205 -217 0
-205 -219 0
-205 -223 0
-209 -212 0
-209 -217 0
-209 -219 0
-209 -223 0
-212 -217 0
-212 -219 0
-212 -223 0
-217 -219 0
-217 -223 0
-219 -223 0
-200 -213 0
-200 -224 0
-213 -224 0
-1 -43 0
-1 -71 0
-1 -138 0
-1 -163 0
-1 -196 0
-43 -71 0
-43 -138 0
-43 -163 0
-43 -196 0
-71 -138 0
-71 -163 0
-71 -196 0
-138 -163 0
-138 -196 0
-163 -196 0
-2 -72 0
-2 -114 0
-2 -164 0
-2 -197 0
-72 -114 0
-72 -164 0
-72 -197 0
-114 -164 0
-114 -197 0
-164 -197 0
-3 -44 0
-3 -139 0
-3 -165 0
-3 -198 0
-44 -139 0
-44 -165 0
-44 -198 0
-139 -165 0
-139 -198 0
-165 -198 0
-4 -73 0
-4 -115 0
-4 -140 0
-4 -166 0
-4 -199 0
-73 -115 0
-73 -140 0
-73 -166 0
-73 -199 0
-115 -140 0
-115 -166 0
-115 -199 0
-140 -166 0
-140 -199 0
-166 -199 0
-5 -45 0
-5 -74 0
-5 -116 0
-45 -74 0
-45 -116 0
-74 -116 0
-75 -117 0
-6 -141 0
-6 -167 0
-6 -200 0
-141 -167 0
-141 -200 0
-167 -200 0
-7 -56 0
-7 -76 0
-7 -168 0
-56 -76 0
-56 -168 0
-76 -168 0
-8 -57 0
-8 -77 0
-8 -118 0
-8 -169 0
-57 -77 0
-57 -118 0
-57 -169 0
-77 -118 0
-77 -169 0
-118 -169 0
-9 -58 0
-9 -170 0
-58 -170 0
-10 -78 0
-10 -99 0
-10 -119 0
-10 -171 0
-78 -99 0
-78 -119 0
-78 -171 0
-99 -119 0
-99 -171 0
-119 -171 0
-79 -100 0
-79 -120 0
-79 -172 0
-100 -120 0
-100 -172 0
-120 -172 0
-11 -173 0
-12 -59 0
-12 -142 0
-12 -174 0
-12 -201 0
-59 -142 0
-59 -174 0
-59 -201 0
-142 -174 0
-142 -201 0
-174 -201 0
-13 -60 0
-13 -175 0
-13 -202 0
-60 -175 0
-60 -202 0
-175 -202 0
-14 -101 0
-14 -143 0
-14 -176 0
-14 -203 0
-101 -143 0
-101 -176 0
-101 -203 0
-143 -176 0
-143 -203 0
-176 -203 0
-15 -61 0
-15 -102 0
-61 -102 0
-103 -144 0
-103 -177 0
-103 -205 0
-144 -177 0
-144 -205 0
-177 -205 0
-16 -62 0
-16 -145 0
-16 -206 0
-62 -145 0
-62 -206 0
-145 -206 0
-17 -63 0
-17 -146 0
-17 -207 0
-63 -146 0
-63 -207 0
-146 -207 0
-80 -121 0
-80 -147 0
-80 -208 0
-121 -147 0
-121 -208 0
-147 -208 0
-18 -64 0
-18 -81 0
-18 -122 0
-64 -81 0
-64 -122 0
-81 -122 0
-19 -82 0
-19 -123 0
-19 -148 0
-82 -123 0
-82 -148 0
-123 -148 0
-20 -83 0
-20 -124 0
-20 -149 0
-20 -209 0
-83 -124 0
-83 -149 0
-83 -209 0
-124 -149 0
-124 -209 0
-149 -209 0
-84 -210 0
-21 -65 0
-21 -150 0
-21 -211 0
-65 -150 0
-65 -211 0
-150 -211 0
-22 -66 0
-22 -85 0
-66 -85 0
-23 -86 0
-23 -104 0
-23 -151 0
-86 -104 0
-86 -151 0
-104 -151 0
-24 -87 0
-24 -105 0
-24 -152 0
-24 -212 0
-87 -105 0
-87 -152 0
-87 -212 0
-105 -152 0
-105 -212 0
-152 -212 0
-153 -213 0
-25 -46 0
-25 -154 0
-25 -178 0
-25 -214 0
-46 -154 0
-46 -178 0
-46 -214 0
-154 -178 0
-154 -214 0
-178 -214 0
-125 -179 0
-125 -215 0
-179 -215 0
-106 -126 0
-106 -155 0
-106 -180 0
-106 -216 0
-126 -155 0
-126 -180 0
-126 -216 0
-155 -180 0
-155 -216 0
-180 -216 0
-26 -127 0
-27 -47 0
-27 -107 0
-27 -128 0
-47 -107 0
-47 -128 0
-107 -128 0
-28 -108 0
-28 -129 0
-28 -156 0
-28 -181 0
-108 -129 0
-108 -156 0
-108 -181 0
-129 -156 0
-129 -181 0
-156 -181 0
-29 -48 0
-29 -109 0
-29 -130 0
-29 -157 0
-29 -182 0
-29 -217 0
-48 -109 0
-48 -130 0
-48 -157 0
-48 -182 0
-48 -217 0
-109 -130 0
-109 -157 0
-109 -182 0
-109 -217 0
-130 -157 0
-130 -182 0
-130 -217 0
-157 -182 0
-157 -217 0
-182 -217 0
-30 -49 0
-30 -183 0
-30 -218 0
-49 -183 0
-49 -218 0
-183 -218 0
-31 -88 0
-32 -50 0
-32 -89 0
-50 -89 0
-90 -184 0
-33 -51 0
-33 -91 0
-33 -185 0
-33 -219 0
-51 -91 0
-51 -185 0
-51 -219 0
-91 -185 0
-91 -219 0
-185 -219 0
-34 -52 0
-34 -186 0
-34 -220 0
-52 -186 0
-52 -220 0
-186 -220 0
-35 -53 0
-35 -187 0
-35 -221 0
-53 -187 0
-53 -221 0
-187 -221 0
-92 -131 0
-92 -188 0
-92 -222 0
-131 -188 0
-131 -222 0
-188 -222 0
-36 -54 0
-36 -93 0
-36 -132 0
-54 -93 0
-54 -132 0
-93 -132 0
-37 -55 0
-37 -94 0
-37 -133 0
-37 -189 0
-37 -223 0
-55 -94 0
-55 -133 0
-55 -189 0
-55 -223 0
-94 -133 0
-94 -189 0
-94 -223 0
-133 -189 0
-133 -223 0
-189 -223 0
-190 -224 0
-38 -67 0
-38 -158 0
-38 -191 0
-67 -158 0
-67 -191 0
-158 -191 0
-39 -68 0
-40 -69 0
-40 -110 0
-40 -159 0
-40 -192 0
-69 -110 0
-69 -159 0
-69 -192 0
-110 -159 0
-110 -192 0
-159 -192 0
-95 -111 0
-95 -134 0
-95 -160 0
-95 -193 0
-111 -134 0
-111 -160 0
-111 -193 0
-134 -160 0
-134 -193 0
-160 -193 0
-41 -70 0
-41 -96 0
-41 -135 0
-70 -96 0
-70 -135 0
-96 -135 0
-97 -112 0
-97 -136 0
-97 -161 0
-97 -194 0
-112 -136 0
-112 -161 0
-112 -194 0
-136 -161 0
-136 -194 0
-161 -194 0
-42 -98 0
-42 -113 0
-42 -137 0
-42 -162 0
-42 -195 0
-98 -113 0
-98 -137 0
-98 -162 0
-98 -195 0
-113 -137 0
-113 -162 0
-113 -195 0
-137 -162 0
-137 -195 0
-162 -195 0
-1 -7 0
-1 -12 0
-1 -43 0
-1 -56 0
-1 -59 0
-7 -12 0
-7 -43 0
-7 -56 0
-7 -59 0
-12 -43 0
-12 -56 0
-12 -59 0
-43 -56 0
-43 -59 0
-56 -59 0
-2 -8 0
-2 -13 0
-2 -57 0
-2 -60 0
-8 -13 0
-8 -57 0
-8 -60 0
-13 -57 0
-13 -60 0
-57 -60 0
-3 -9 0
-3 -44 0
-3 -58 0
-9 -44 0
-9 -58 0
-44 -58 0
-4 -10 0
-4 -14 0
-10 -14 0
-5 -15 0
-5 -45 0
-5 -61 0
-15 -45 0
-15 -61 0
-45 -61 0
-6 -11 0
-16 -25 0
-16 -46 0
-16 -62 0
-25 -46 0
-25 -62 0
-46 -62 0
-17 -21 0
-17 -63 0
-17 -65 0
-21 -63 0
-21 -65 0
-63 -65 0
-22 -26 0
-22 -66 0
-26 -66 0
-18 -27 0
-18 -47 0
-18 -64 0
-27 -47 0
-27 -64 0
-47 -64 0
-19 -23 0
-19 -28 0
-23 -28 0
-20 -24 0
-20 -29 0
-20 -48 0
-24 -29 0
-24 -48 0
-29 -48 0
-34 -38 0
-34 -52 0
-34 -67 0
-38 -52 0
-38 -67 0
-52 -67 0
-39 -68 0
-30 -35 0
-30 -40 0
-30 -49 0
-30 -53 0
-30 -69 0
-35 -40 0
-35 -49 0
-35 -53 0
-35 -69 0
-40 -49 0
-40 -53 0
-40 -69 0
-49 -53 0
-49 -69 0
-53 -69 0
-31 -41 0
-31 -70 0
-41 -70 0
-32 -36 0
-32 -50 0
-32 -54 0
-36 -50 0
-36 -54 0
-50 -54 0
-33 -37 0
-33 -42 0
-33 -51 0
-33 -55 0
-37 -42 0
-37 -51 0
-37 -55 0
-42 -51 0
-42 -55 0
-51 -55 0
-71 -76 0
-72 -77 0
-72 -114 0
-72 -118 0
-77 -114 0
-77 -118 0
-114 -118 0
-73 -78 0
-73 -99 0
-73 -101 0
-73 -115 0
-73 -119 0
-78 -99 0
-78 -101 0
-78 -115 0
-78 -119 0
-99 -101 0
-99 -115 0
-99 -119 0
-101 -115 0
-101 -119 0
-115 -119 0
-74 -102 0
-74 -116 0
-102 -116 0
-75 -117 0
-79 -100 0
-79 -103 0
-79 -120 0
-100 -103 0
-100 -120 0
-103 -120 0
-84 -125 0
-80 -106 0
-80 -121 0
-80 -126 0
-106 -121 0
-106 -126 0
-121 -126 0
-85 -127 0
-81 -107 0
-81 -122 0
-81 -128 0
-107 -122 0
-107 -128 0
-122 -128 0
-82 -86 0
-82 -104 0
-82 -108 0
-82 -123 0
-82 -129 0
-86 -104 0
-86 -108 0
-86 -123 0
-86 -129 0
-104 -108 0
-104 -123 0
-104 -129 0
-108 -123 0
-108 -129 0
-123 -129 0
-83 -87 0
-83 -105 0
-83 -109 0
-83 -124 0
-83 -130 0
-87 -105 0
-87 -109 0
-87 -124 0
-87 -130 0
-105 -109 0
-105 -124 0
-105 -130 0
-109 -124 0
-109 -130 0
-124 -130 0
-92 -95 0
-92 -111 0
-92 -131 0
-92 -134 0
-95 -111 0
-95 -131 0
-95 -134 0
-111 -131 0
-111 -134 0
-131 -134 0
-88 -96 0
-88 -135 0
-96 -135 0
-89 -93 0
-89 -132 0
-93 -132 0
-90 -97 0
-90 -112 0
-90 -136 0
-97 -112 0
-97 -136 0
-112 -136 0
-91 -94 0
-91 -98 0
-91 -113 0
-91 -133 0
-91 -137 0
-94 -98 0
-94 -113 0
-94 -133 0
-94 -137 0
-98 -113 0
-98 -133 0
-98 -137 0
-113 -133 0
-113 -137 0
-133 -137 0
-138 -142 0
-138 -163 0
-138 -168 0
-138 -174 0
-138 -196 0
-138 -201 0
-142 -163 0
-142 -168 0
-142 -174 0
-142 -196 0
-142 -201 0
-163 -168 0
-163 -174 0
-163 -196 0
-163 -201 0
-168 -174 0
-168 -196 0
-168 -201 0
-174 -196 0
-174 -201 0
-196 -201 0
-164 -169 0
-164 -175 0
-164 -197 0
-164 -202 0
-169 -175 0
-169 -197 0
-169 -202 0
-175 -197 0
-175 -202 0
-197 -202 0
-139 -165 0
-139 -170 0
-139 -198 0
-165 -170 0
-165 -198 0
-170 -198 0
-140 -143 0
-140 -166 0
-140 -171 0
-140 -176 0
-140 -199 0
-140 -203 0
-143 -166 0
-143 -171 0
-143 -176 0
-143 -199 0
-143 -203 0
-166 -171 0
-166 -176 0
-166 -199 0
-166 -203 0
-171 -176 0
-171 -199 0
-171 -203 0
-176 -199 0
-176 -203 0
-199 -203 0
-144 -172 0
-144 -177 0
-144 -205 0
-172 -177 0
-172 -205 0
-177 -205 0
-141 -167 0
-141 -173 0
-141 -200 0
-167 -173 0
-167 -200 0
-173 -200 0
-145 -154 0
-145 -178 0
-145 -206 0
-145 -214 0
-154 -178 0
-154 -206 0
-154 -214 0
-178 -206 0
-178 -214 0
-206 -214 0
-179 -210 0
-179 -215 0
-210 -215 0
-146 -150 0
-146 -207 0
-146 -211 0
-150 -207 0
-150 -211 0
-207 -211 0
-147 -155 0
-147 -180 0
-147 -208 0
-147 -216 0
-155 -180 0
-155 -208 0
-155 -216 0
-180 -208 0
-180 -216 0
-208 -216 0
-148 -151 0
-148 -156 0
-148 -181 0
-151 -156 0
-151 -181 0
-156 -181 0
-149 -152 0
-149 -157 0
-149 -182 0
-149 -209 0
-149 -212 0
-149 -217 0
-152 -157 0
-152 -182 0
-152 -209 0
-152 -212 0
-152 -217 0
-157 -182 0
-157 -209 0
-157 -212 0
-157 -217 0
-182 -209 0
-182 -212 0
-182 -217 0
-209 -212 0
-209 -217 0
-212 -217 0
-153 -213 0
-158 -186 0
-158 -191 0
-158 -220 0
-186 -191 0
-186 -220 0
-191 -220 0
-159 -183 0
-159 -187 0
-159 -192 0
-159 -218 0
-159 -221 0
-183 -187 0
-183 -192 0
-183 -218 0
-183 -221 0
-187 -192 0
-187 -218 0
-187 -221 0
-192 -218 0
-192 -221 0
-218 -221 0
-160 -188 0
-160 -193 0
-160 -222 0
-188 -193 0
-188 -222 0
-193 -222 0
-161 -184 0
-161 -194 0
-184 -194 0
-162 -185 0
-162 -189 0
-162 -195 0
-162 -219 0
-162 -223 0
-185 -189 0
-185 -195 0
-185 -219 0
-185 -223 0
-189 -195 0
-189 -219 0
-189 -223 0
-195 -219 0
-195 -223 0
-219 -223 0
-190 -224 0
1 2 3 4 5 6 0
7 8 9 10 11 0
12 13 14 15 0
16 17 18 19 20 0
21 22 23 24 0
25 26 27 28 29 0
30 31 32 33 0
34 35 36 37 0
38 39 40 41 42 0
43 44 45 0
46 47 48 0
49 50 51 0
52 53 54 55 0
56 57 58 0
59 60 61 0
62 63 64 0
65 66 0
67 68 69 70 0
71 72 73 74 75 0
76 77 78 79 0
80 81 82 83 0
84 85 86 87 0
88 89 90 91 0
92 93 94 0
95 96 97 98 0
99 100 0
101 102 103 0
104 105 0
106 107 108 109 0
110 111 112 113 0
114 115 116 117 0
118 119 120 0
121 122 123 124 0
125 126 127 128 129 130 0
131 132 133 0
134 135 136 137 0
138 139 140 141 0
142 143 144 0
145 146 147 148 149 0
150 151 152 153 0
154 155 156 157 0
158 159 160 161 162 0
163 164 165 166 167 0
168 169 170 171 172 173 0
174 175 176 177 0
178 179 180 181 182 0
183 184 185 0
186 187 188 189 190 0
191 192 193 194 195 0
196 197 198 199 200 0
201 202 203 204 205 0
206 207 208 209 0
210 211 212 213 0
214 215 216 217 0
218 219 0
220 221 222 223 224 0
1 7 12 16 25 34 38 0
2 8 13 39 0
3 9 17 21 30 35 40 0
4 10 14 0
22 26 31 41 0
5 15 18 27 32 36 0
19 23 28 0
20 24 29 33 37 42 0
6 11 0
43 46 52 0
44 49 53 0
45 47 50 54 0
48 51 55 0
56 59 62 67 0
57 60 68 0
58 63 65 69 0
66 70 0
61 64 0
71 76 0
72 77 84 0
73 78 80 92 95 0
85 88 96 0
74 81 89 93 0
75 82 86 90 97 0
79 83 87 91 94 98 0
110 0
99 101 106 111 0
102 107 0
104 108 112 0
100 103 105 109 113 0
114 118 125 0
115 119 121 126 131 134 0
127 135 0
116 122 128 132 0
117 123 129 136 0
120 124 130 133 137 0
138 142 145 154 158 0
139 146 150 159 0
140 143 147 155 160 0
148 151 156 161 0
144 149 152 157 162 0
141 153 0
163 168 174 178 186 191 0
164 169 175 179 0
165 170 183 187 192 0
166 171 176 180 188 193 0
181 184 194 0
172 177 182 185 189 195 0
167 173 190 0
196 201 206 214 220 0
197 202 210 215 0
198 207 211 218 221 0
199 203 208 216 222 0
204 0
205 209 212 217 219 223 0
200 213 224 0
1 43 71 138 163 196 0
2 72 114 164 197 0
3 44 139 165 198 0
4 73 115 140 166 199 0
5 45 74 116 0
75 117 0
6 141 167 200 0
7 56 76 168 0
8 57 77 118 169 0
9 58 170 0
10 78 99 119 171 0
79 100 120 172 0
11 173 0
12 59 142 174 201 0
13 60 175 202 0
14 101 143 176 203 0
204 0
15 61 102 0
103 144 177 205 0
16 62 145 206 0
17 63 146 207 0
80 121 147 208 0
18 64 81 122 0
19 82 123 148 0
20 83 124 149 209 0
84 210 0
21 65 150 211 0
22 66 85 0
23 86 104 151 0
24 87 105 152 212 0
153 213 0
25 46 154 178 214 0
125 179 215 0
106 126 155 180 216 0
26 127 0
27 47 107 128 0
28 108 129 156 181 0
29 48 109 130 157 182 217 0
30 49 183 218 0
31 88 0
32 50 89 0
90 184 0
33 51 91 185 219 0
34 52 186 220 0
35 53 187 221 0
92 131 188 222 0
36 54 93 132 0
37 55 94 133 189 223 0
190 224 0
38 67 158 191 0
39 68 0
40 69 110 159 192 0
95 111 134 160 193 0
41 70 96 135 0
97 112 136 161 194 0
42 98 113 137 162 195 0
1 7 12 43 56 59 0
2 8 13 57 60 0
3 9 44 58 0
4 10 14 0
5 15 45 61 0
6 11 0
16 25 46 62 0
17 21 63 65 0
22 26 66 0
18 27 47 64 0
19 23 28 0
20 24 29 48 0
34 38 52 67 0
39 68 0
30 35 40 49 53 69 0
31 41 70 0
32 36 50 54 0
33 37 42 51 55 0
71 76 0
72 77 114 118 0
73 78 99 101 115 119 0
74 102 116 0
75 117 0
79 100 103 120 0
84 125 0
80 106 121 126 0
85 127 0
81 107 122 128 0
82 86 104 108 123 129 0
83 87 105 109 124 130 0
110 0
92 95 111 131 134 0
88 96 135 0
89 93 132 0
90 97 112 136 0
91 94 98 113 133 137 0
138 142 163 168 174 196 201 0
164 169 175 197 202 0
139 165 170 198 0
140 143 166 171 176 199 203 0
204 0
144 172 177 205 0
141 167 173 200 0
145 154 178 206 214 0
179 210 215 0
146 150 207 211 0
147 155 180 208 216 0
148 151 156 181 0
149 152 157 182 209 212 217 0
153 213 0
158 186 191 220 0
159 183 187 192 218 221 0
160 188 193 222 0
161 184 194 0
162 185 189 195 219 223 0
190 224 0
